(declare-fun temp7230_1 () (_ BitVec 64))
(declare-fun temp7230_2 () (_ BitVec 64))
(declare-fun var148331 () (_ BitVec 64))
(declare-fun k!0 () Bool)
(declare-fun ARGNAME_input_NAMEEND_DIM () (_ BitVec 64))
(declare-fun temp7230_3 () (_ BitVec 64))
(declare-fun temp7230_4 () (_ BitVec 64))
(declare-fun ARGNAME_input_NAMEEND_DIMSIZE
             ()
             (Array (_ BitVec 64) (_ BitVec 64)))
(declare-fun temp7230_5 () (_ BitVec 64))
(declare-fun temp7230_6 () (_ BitVec 64))
(declare-fun temp7230_7 () (_ BitVec 64))
(declare-fun temp7230_8 () (_ BitVec 64))
(declare-fun temp7230_9 () (_ BitVec 64))
(declare-fun temp7230_10 () (_ BitVec 64))
(declare-fun temp7230_11 () (_ BitVec 64))
(declare-fun temp7230_12 () (_ BitVec 64))
(declare-fun temp7230_13 () (_ BitVec 64))
(declare-fun temp7230_14 () (_ BitVec 64))
(declare-fun temp7230_15 () (_ BitVec 64))
(declare-fun temp7230_16 () (_ BitVec 64))
(declare-fun temp7230_17 () (_ BitVec 64))
(declare-fun temp7230_18 () (_ BitVec 64))
(declare-fun temp7230_19 () (_ BitVec 64))
(declare-fun temp7230_20 () (_ BitVec 64))
(declare-fun temp7230_21 () (_ BitVec 64))
(declare-fun var148344 () (_ BitVec 64))
(declare-fun temp7230_22 () (_ BitVec 64))
(declare-fun temp7230_23 () (_ BitVec 64))
(declare-fun var148345 () (_ BitVec 64))
(declare-fun temp7230_25 () (_ BitVec 64))
(declare-fun temp7230_24 () (_ BitVec 64))
(declare-fun temp7230_27 () (_ BitVec 64))
(declare-fun temp7230_26 () (_ BitVec 64))
(declare-fun ARGNAME_split_sizes_NAMEEND_LEN () (_ BitVec 64))
(declare-fun var396610 () (_ BitVec 64))
(declare-fun temp7230_28 () (_ BitVec 64))
(declare-fun temp7230_29 () (_ BitVec 64))
(declare-fun var462151 () (_ BitVec 64))
(declare-fun var527698 () (_ BitVec 64))
(declare-fun temp7230_30 () (_ BitVec 64))
(declare-fun var1064603 () (_ BitVec 64))
(declare-fun temp7230_31 () (_ BitVec 64))
(declare-fun var1064652 () (_ BitVec 64))
(declare-fun temp7230_32 () (_ BitVec 64))
(declare-fun temp7230_33 () (_ BitVec 64))
(declare-fun var1315402 () (_ BitVec 64))
(declare-fun temp7230_34 () (_ BitVec 64))
(declare-fun var2036298 () (_ BitVec 64))
(declare-fun temp7230_35 () (_ BitVec 64))
(declare-fun var1064769 () (_ BitVec 64))
(declare-fun temp7230_36 () (_ BitVec 64))
(declare-fun temp7230_37 () (_ BitVec 64))
(declare-fun var3357340 () (_ BitVec 64))
(declare-fun var3357344 () (_ BitVec 64))
(declare-fun temp7230_39 () (_ BitVec 64))
(declare-fun temp7230_38 () (_ BitVec 64))
(declare-fun var148387 () (_ BitVec 64))
(declare-fun var148388 () (_ BitVec 64))
(declare-fun temp7230_40 () (_ BitVec 64))
(declare-fun temp7230_41 () (_ BitVec 64))
(declare-fun var6033188 () (_ BitVec 64))
(declare-fun temp7230_42 () (_ BitVec 64))
(declare-fun var6033203 () (_ BitVec 64))
(declare-fun temp7230_43 () (_ BitVec 64))
(declare-fun var6033205 () (_ BitVec 64))
(declare-fun temp7230_44 () (_ BitVec 64))
(declare-fun var6033268 () (_ BitVec 64))
(declare-fun temp7230_45 () (_ BitVec 64))
(declare-fun var6098724 () (_ BitVec 64))
(declare-fun temp7230_46 () (_ BitVec 64))
(declare-fun var6098739 () (_ BitVec 64))
(declare-fun temp7230_47 () (_ BitVec 64))
(declare-fun var6098741 () (_ BitVec 64))
(declare-fun temp7230_48 () (_ BitVec 64))
(declare-fun var6098804 () (_ BitVec 64))
(declare-fun temp7230_49 () (_ BitVec 64))
(declare-fun var6308236 () (_ BitVec 64))
(declare-fun temp7230_50 () (_ BitVec 64))
(declare-fun var6491940 () (_ BitVec 64))
(declare-fun temp7230_51 () (_ BitVec 64))
(declare-fun var6491955 () (_ BitVec 64))
(declare-fun temp7230_52 () (_ BitVec 64))
(declare-fun var6491957 () (_ BitVec 64))
(declare-fun temp7230_53 () (_ BitVec 64))
(declare-fun var6492020 () (_ BitVec 64))
(declare-fun temp7230_54 () (_ BitVec 64))
(declare-fun var6557476 () (_ BitVec 64))
(declare-fun temp7230_55 () (_ BitVec 64))
(declare-fun var6557491 () (_ BitVec 64))
(declare-fun temp7230_56 () (_ BitVec 64))
(declare-fun var6557493 () (_ BitVec 64))
(declare-fun temp7230_57 () (_ BitVec 64))
(declare-fun var6557556 () (_ BitVec 64))
(assert (= temp7230_1 #x0000000000000000))
(assert (= var148331
   (ite (= ARGNAME_input_NAMEEND_DIM temp7230_1)
        #x0000000000000001
        #x0000000000000000)))
(assert (= temp7230_2 #x0000000000000000))
(assert (= var148331 temp7230_2))
(assert (= temp7230_3 #x0000000000000000))
(assert (= temp7230_4 temp7230_3))
(assert (= temp7230_5 (select ARGNAME_input_NAMEEND_DIMSIZE temp7230_4)))
(assert (= temp7230_6 #x0000000000000001))
(assert (= temp7230_7 temp7230_6))
(assert (= temp7230_8 (select ARGNAME_input_NAMEEND_DIMSIZE temp7230_7)))
(assert (= temp7230_9 #x0000000000000002))
(assert (= temp7230_10 temp7230_9))
(assert (= temp7230_11 (select ARGNAME_input_NAMEEND_DIMSIZE temp7230_10)))
(assert (= temp7230_12 #x0000000000000003))
(assert (= temp7230_13 temp7230_12))
(assert (= temp7230_14 (select ARGNAME_input_NAMEEND_DIMSIZE temp7230_13)))
(assert (= temp7230_15 #x0000000000000004))
(assert (= temp7230_16 temp7230_15))
(assert (= temp7230_17 (select ARGNAME_input_NAMEEND_DIMSIZE temp7230_16)))
(assert (= temp7230_18 #x0000000000000005))
(assert (= temp7230_19 temp7230_18))
(assert (= temp7230_20 (select ARGNAME_input_NAMEEND_DIMSIZE temp7230_19)))
(assert (= temp7230_21 #x0000000000000000))
(assert (= temp7230_22
   (ite (bvslt var148344 temp7230_21)
        (bvadd ARGNAME_input_NAMEEND_DIM var148344)
        var148344)))
(assert (= temp7230_23 (select ARGNAME_input_NAMEEND_DIMSIZE temp7230_22)))
(assert (= var148345 temp7230_23))
(assert (bvslt (ite (bvslt var148344 temp7230_21)
            (bvadd ARGNAME_input_NAMEEND_DIM var148344)
            var148344)
       ARGNAME_input_NAMEEND_DIM))
(assert (= temp7230_25 #x0000000000000000))
(assert (= temp7230_24 temp7230_25))
(assert (= temp7230_27 #x0000000000000000))
(assert (= temp7230_26 temp7230_27))
(assert (= var396610
   (ite (bvslt temp7230_26 ARGNAME_split_sizes_NAMEEND_LEN)
        #x0000000000000001
        #x0000000000000000)))
(assert (= temp7230_28
   (ite (= var396610 #x0000000000000001)
        ARGNAME_split_sizes_NAMEEND_LEN
        temp7230_26)))
(assert (= temp7230_29 #x0000000000000000))
(assert (= var462151 temp7230_29))
(assert (= var527698 var462151))
(assert (= temp7230_30 #x0000000000000001))
(assert (= var1064603 temp7230_30))
(assert (= temp7230_31 #x0000000000000000))
(assert (= var1064652
   (ite (= ARGNAME_input_NAMEEND_DIM temp7230_31)
        #x0000000000000001
        #x0000000000000000)))
(assert (= temp7230_32 #x0000000000000000))
(assert (= var1064652 temp7230_32))
(assert (= temp7230_33 #x0000000000000005))
(assert (= var1315402 temp7230_33))
(assert (= temp7230_34 #x0000000000000005))
(assert (= var2036298 temp7230_34))
(assert (= temp7230_35 #x0000000000000001))
(assert (= var1064769
   (ite (bvslt var1064603 temp7230_35) #x0000000000000001 #x0000000000000000)))
(assert (= temp7230_36 #x0000000000000000))
(assert (= var1064769 temp7230_36))
(assert (= temp7230_37 #x0000000000000000))
(assert (= var3357340 temp7230_37))
(assert (= var3357344 var1064603))
(assert (= temp7230_39 #x0000000000000000))
(assert (= temp7230_38 temp7230_39))
(assert (= var148387 var148345))
(assert (= var148388
   (ite (= temp7230_24 var148387) #x0000000000000001 #x0000000000000000)))
(assert (= temp7230_40 #x0000000000000001))
(assert (= var148388 temp7230_40))
(assert (= temp7230_41 #x0000000000000000))
(assert (= var6033188 temp7230_41))
(assert (= temp7230_42 #x0000000000003fff))
(assert (= var6033203 (bvand var6033188 temp7230_42)))
(assert (= temp7230_43 #x0000000000000000))
(assert (= var6033205
   (ite (= var6033203 temp7230_43) #x0000000000000001 #x0000000000000000)))
(assert (= temp7230_44 #x0000000000000001))
(assert (= var6033205 temp7230_44))
(assert (= var6033268 var6033188))
(assert (= temp7230_45 #x0000000000000000))
(assert (= var6098724 temp7230_45))
(assert (= temp7230_46 #x0000000000003fff))
(assert (= var6098739 (bvand var6098724 temp7230_46)))
(assert (= temp7230_47 #x0000000000000000))
(assert (= var6098741
   (ite (= var6098739 temp7230_47) #x0000000000000001 #x0000000000000000)))
(assert (= temp7230_48 #x0000000000000001))
(assert (= var6098741 temp7230_48))
(assert (= var6098804 var6098724))
(assert (= temp7230_49 #x0000000000000000))
(assert (= var6308236 temp7230_49))
(assert (= temp7230_50 #x0000000000000000))
(assert (= var6491940 temp7230_50))
(assert (= temp7230_51 #x0000000000003fff))
(assert (= var6491955 (bvand var6491940 temp7230_51)))
(assert (= temp7230_52 #x0000000000000000))
(assert (= var6491957
   (ite (= var6491955 temp7230_52) #x0000000000000001 #x0000000000000000)))
(assert (= temp7230_53 #x0000000000000001))
(assert (= var6491957 temp7230_53))
(assert (= var6492020 var6491940))
(assert (= temp7230_54 #x0000000000000000))
(assert (= var6557476 temp7230_54))
(assert (= temp7230_55 #x0000000000003fff))
(assert (= var6557491 (bvand var6557476 temp7230_55)))
(assert (= temp7230_56 #x0000000000000000))
(assert (= var6557493
   (ite (= var6557491 temp7230_56) #x0000000000000001 #x0000000000000000)))
(assert (= temp7230_57 #x0000000000000001))
(assert (= var6557493 temp7230_57))
(assert (= var6557556 var6557476))
(model-add temp7230_1 () (_ BitVec 64) #x0000000000000000)
(model-add temp7230_2 () (_ BitVec 64) #x0000000000000000)
(model-add var148331 () (_ BitVec 64) #x0000000000000000)
(model-del k!0)
(model-add ARGNAME_input_NAMEEND_DIM
           ()
           (_ BitVec 64)
           (ite k!0 #x0000000000000000 (bvnot #x0000000000000000)))






